certificates/rado_a26_c18_N251.cnf
c Rad2 upper bound instance: x1 + 26*x2 - x3 = 18, interval [1,251]
p cnf 251 2520
1 9 0
-1 -9 0
1 2 35 0
-1 -2 -35 0
1 3 61 0
-1 -3 -61 0
1 4 87 0
-1 -4 -87 0
1 5 113 0
-1 -5 -113 0
1 6 139 0
-1 -6 -139 0
1 7 165 0
-1 -7 -165 0
1 8 191 0
-1 -8 -191 0
1 9 217 0
-1 -9 -217 0
1 10 243 0
-1 -10 -243 0
1 2 10 0
-1 -2 -10 0
2 36 0
-2 -36 0
2 3 62 0
-2 -3 -62 0
2 4 88 0
-2 -4 -88 0
2 5 114 0
-2 -5 -114 0
2 6 140 0
-2 -6 -140 0
2 7 166 0
-2 -7 -166 0
2 8 192 0
-2 -8 -192 0
2 9 218 0
-2 -9 -218 0
2 10 244 0
-2 -10 -244 0
1 3 11 0
-1 -3 -11 0
2 3 37 0
-2 -3 -37 0
3 63 0
-3 -63 0
3 4 89 0
-3 -4 -89 0
3 5 115 0
-3 -5 -115 0
3 6 141 0
-3 -6 -141 0
3 7 167 0
-3 -7 -167 0
3 8 193 0
-3 -8 -193 0
3 9 219 0
-3 -9 -219 0
3 10 245 0
-3 -10 -245 0
1 4 12 0
-1 -4 -12 0
2 4 38 0
-2 -4 -38 0
3 4 64 0
-3 -4 -64 0
4 90 0
-4 -90 0
4 5 116 0
-4 -5 -116 0
4 6 142 0
-4 -6 -142 0
4 7 168 0
-4 -7 -168 0
4 8 194 0
-4 -8 -194 0
4 9 220 0
-4 -9 -220 0
4 10 246 0
-4 -10 -246 0
1 5 13 0
-1 -5 -13 0
2 5 39 0
-2 -5 -39 0
3 5 65 0
-3 -5 -65 0
4 5 91 0
-4 -5 -91 0
5 117 0
-5 -117 0
5 6 143 0
-5 -6 -143 0
5 7 169 0
-5 -7 -169 0
5 8 195 0
-5 -8 -195 0
5 9 221 0
-5 -9 -221 0
5 10 247 0
-5 -10 -247 0
1 6 14 0
-1 -6 -14 0
2 6 40 0
-2 -6 -40 0
3 6 66 0
-3 -6 -66 0
4 6 92 0
-4 -6 -92 0
5 6 118 0
-5 -6 -118 0
6 144 0
-6 -144 0
6 7 170 0
-6 -7 -170 0
6 8 196 0
-6 -8 -196 0
6 9 222 0
-6 -9 -222 0
6 10 248 0
-6 -10 -248 0
1 7 15 0
-1 -7 -15 0
2 7 41 0
-2 -7 -41 0
3 7 67 0
-3 -7 -67 0
4 7 93 0
-4 -7 -93 0
5 7 119 0
-5 -7 -119 0
6 7 145 0
-6 -7 -145 0
7 171 0
-7 -171 0
7 8 197 0
-7 -8 -197 0
7 9 223 0
-7 -9 -223 0
7 10 249 0
-7 -10 -249 0
1 8 16 0
-1 -8 -16 0
2 8 42 0
-2 -8 -42 0
3 8 68 0
-3 -8 -68 0
4 8 94 0
-4 -8 -94 0
5 8 120 0
-5 -8 -120 0
6 8 146 0
-6 -8 -146 0
7 8 172 0
-7 -8 -172 0
8 198 0
-8 -198 0
8 9 224 0
-8 -9 -224 0
8 10 250 0
-8 -10 -250 0
1 9 17 0
-1 -9 -17 0
2 9 43 0
-2 -9 -43 0
3 9 69 0
-3 -9 -69 0
4 9 95 0
-4 -9 -95 0
5 9 121 0
-5 -9 -121 0
6 9 147 0
-6 -9 -147 0
7 9 173 0
-7 -9 -173 0
8 9 199 0
-8 -9 -199 0
9 225 0
-9 -225 0
9 10 251 0
-9 -10 -251 0
1 10 18 0
-1 -10 -18 0
2 10 44 0
-2 -10 -44 0
3 10 70 0
-3 -10 -70 0
4 10 96 0
-4 -10 -96 0
5 10 122 0
-5 -10 -122 0
6 10 148 0
-6 -10 -148 0
7 10 174 0
-7 -10 -174 0
8 10 200 0
-8 -10 -200 0
9 10 226 0
-9 -10 -226 0
1 11 19 0
-1 -11 -19 0
2 11 45 0
-2 -11 -45 0
3 11 71 0
-3 -11 -71 0
4 11 97 0
-4 -11 -97 0
5 11 123 0
-5 -11 -123 0
6 11 149 0
-6 -11 -149 0
7 11 175 0
-7 -11 -175 0
8 11 201 0
-8 -11 -201 0
9 11 227 0
-9 -11 -227 0
1 12 20 0
-1 -12 -20 0
2 12 46 0
-2 -12 -46 0
3 12 72 0
-3 -12 -72 0
4 12 98 0
-4 -12 -98 0
5 12 124 0
-5 -12 -124 0
6 12 150 0
-6 -12 -150 0
7 12 176 0
-7 -12 -176 0
8 12 202 0
-8 -12 -202 0
9 12 228 0
-9 -12 -228 0
1 13 21 0
-1 -13 -21 0
2 13 47 0
-2 -13 -47 0
3 13 73 0
-3 -13 -73 0
4 13 99 0
-4 -13 -99 0
5 13 125 0
-5 -13 -125 0
6 13 151 0
-6 -13 -151 0
7 13 177 0
-7 -13 -177 0
8 13 203 0
-8 -13 -203 0
9 13 229 0
-9 -13 -229 0
1 14 22 0
-1 -14 -22 0
2 14 48 0
-2 -14 -48 0
3 14 74 0
-3 -14 -74 0
4 14 100 0
-4 -14 -100 0
5 14 126 0
-5 -14 -126 0
6 14 152 0
-6 -14 -152 0
7 14 178 0
-7 -14 -178 0
8 14 204 0
-8 -14 -204 0
9 14 230 0
-9 -14 -230 0
1 15 23 0
-1 -15 -23 0
2 15 49 0
-2 -15 -49 0
3 15 75 0
-3 -15 -75 0
4 15 101 0
-4 -15 -101 0
5 15 127 0
-5 -15 -127 0
6 15 153 0
-6 -15 -153 0
7 15 179 0
-7 -15 -179 0
8 15 205 0
-8 -15 -205 0
9 15 231 0
-9 -15 -231 0
1 16 24 0
-1 -16 -24 0
2 16 50 0
-2 -16 -50 0
3 16 76 0
-3 -16 -76 0
4 16 102 0
-4 -16 -102 0
5 16 128 0
-5 -16 -128 0
6 16 154 0
-6 -16 -154 0
7 16 180 0
-7 -16 -180 0
8 16 206 0
-8 -16 -206 0
9 16 232 0
-9 -16 -232 0
1 17 25 0
-1 -17 -25 0
2 17 51 0
-2 -17 -51 0
3 17 77 0
-3 -17 -77 0
4 17 103 0
-4 -17 -103 0
5 17 129 0
-5 -17 -129 0
6 17 155 0
-6 -17 -155 0
7 17 181 0
-7 -17 -181 0
8 17 207 0
-8 -17 -207 0
9 17 233 0
-9 -17 -233 0
1 18 26 0
-1 -18 -26 0
2 18 52 0
-2 -18 -52 0
3 18 78 0
-3 -18 -78 0
4 18 104 0
-4 -18 -104 0
5 18 130 0
-5 -18 -130 0
6 18 156 0
-6 -18 -156 0
7 18 182 0
-7 -18 -182 0
8 18 208 0
-8 -18 -208 0
9 18 234 0
-9 -18 -234 0
1 19 27 0
-1 -19 -27 0
2 19 53 0
-2 -19 -53 0
3 19 79 0
-3 -19 -79 0
4 19 105 0
-4 -19 -105 0
5 19 131 0
-5 -19 -131 0
6 19 157 0
-6 -19 -157 0
7 19 183 0
-7 -19 -183 0
8 19 209 0
-8 -19 -209 0
9 19 235 0
-9 -19 -235 0
1 20 28 0
-1 -20 -28 0
2 20 54 0
-2 -20 -54 0
3 20 80 0
-3 -20 -80 0
4 20 106 0
-4 -20 -106 0
5 20 132 0
-5 -20 -132 0
6 20 158 0
-6 -20 -158 0
7 20 184 0
-7 -20 -184 0
8 20 210 0
-8 -20 -210 0
9 20 236 0
-9 -20 -236 0
1 21 29 0
-1 -21 -29 0
2 21 55 0
-2 -21 -55 0
3 21 81 0
-3 -21 -81 0
4 21 107 0
-4 -21 -107 0
5 21 133 0
-5 -21 -133 0
6 21 159 0
-6 -21 -159 0
7 21 185 0
-7 -21 -185 0
8 21 211 0
-8 -21 -211 0
9 21 237 0
-9 -21 -237 0
1 22 30 0
-1 -22 -30 0
2 22 56 0
-2 -22 -56 0
3 22 82 0
-3 -22 -82 0
4 22 108 0
-4 -22 -108 0
5 22 134 0
-5 -22 -134 0
6 22 160 0
-6 -22 -160 0
7 22 186 0
-7 -22 -186 0
8 22 212 0
-8 -22 -212 0
9 22 238 0
-9 -22 -238 0
1 23 31 0
-1 -23 -31 0
2 23 57 0
-2 -23 -57 0
3 23 83 0
-3 -23 -83 0
4 23 109 0
-4 -23 -109 0
5 23 135 0
-5 -23 -135 0
6 23 161 0
-6 -23 -161 0
7 23 187 0
-7 -23 -187 0
8 23 213 0
-8 -23 -213 0
9 23 239 0
-9 -23 -239 0
1 24 32 0
-1 -24 -32 0
2 24 58 0
-2 -24 -58 0
3 24 84 0
-3 -24 -84 0
4 24 110 0
-4 -24 -110 0
5 24 136 0
-5 -24 -136 0
6 24 162 0
-6 -24 -162 0
7 24 188 0
-7 -24 -188 0
8 24 214 0
-8 -24 -214 0
9 24 240 0
-9 -24 -240 0
1 25 33 0
-1 -25 -33 0
2 25 59 0
-2 -25 -59 0
3 25 85 0
-3 -25 -85 0
4 25 111 0
-4 -25 -111 0
5 25 137 0
-5 -25 -137 0
6 25 163 0
-6 -25 -163 0
7 25 189 0
-7 -25 -189 0
8 25 215 0
-8 -25 -215 0
9 25 241 0
-9 -25 -241 0
1 26 34 0
-1 -26 -34 0
2 26 60 0
-2 -26 -60 0
3 26 86 0
-3 -26 -86 0
4 26 112 0
-4 -26 -112 0
5 26 138 0
-5 -26 -138 0
6 26 164 0
-6 -26 -164 0
7 26 190 0
-7 -26 -190 0
8 26 216 0
-8 -26 -216 0
9 26 242 0
-9 -26 -242 0
1 27 35 0
-1 -27 -35 0
2 27 61 0
-2 -27 -61 0
3 27 87 0
-3 -27 -87 0
4 27 113 0
-4 -27 -113 0
5 27 139 0
-5 -27 -139 0
6 27 165 0
-6 -27 -165 0
7 27 191 0
-7 -27 -191 0
8 27 217 0
-8 -27 -217 0
9 27 243 0
-9 -27 -243 0
1 28 36 0
-1 -28 -36 0
2 28 62 0
-2 -28 -62 0
3 28 88 0
-3 -28 -88 0
4 28 114 0
-4 -28 -114 0
5 28 140 0
-5 -28 -140 0
6 28 166 0
-6 -28 -166 0
7 28 192 0
-7 -28 -192 0
8 28 218 0
-8 -28 -218 0
9 28 244 0
-9 -28 -244 0
1 29 37 0
-1 -29 -37 0
2 29 63 0
-2 -29 -63 0
3 29 89 0
-3 -29 -89 0
4 29 115 0
-4 -29 -115 0
5 29 141 0
-5 -29 -141 0
6 29 167 0
-6 -29 -167 0
7 29 193 0
-7 -29 -193 0
8 29 219 0
-8 -29 -219 0
9 29 245 0
-9 -29 -245 0
1 30 38 0
-1 -30 -38 0
2 30 64 0
-2 -30 -64 0
3 30 90 0
-3 -30 -90 0
4 30 116 0
-4 -30 -116 0
5 30 142 0
-5 -30 -142 0
6 30 168 0
-6 -30 -168 0
7 30 194 0
-7 -30 -194 0
8 30 220 0
-8 -30 -220 0
9 30 246 0
-9 -30 -246 0
1 31 39 0
-1 -31 -39 0
2 31 65 0
-2 -31 -65 0
3 31 91 0
-3 -31 -91 0
4 31 117 0
-4 -31 -117 0
5 31 143 0
-5 -31 -143 0
6 31 169 0
-6 -31 -169 0
7 31 195 0
-7 -31 -195 0
8 31 221 0
-8 -31 -221 0
9 31 247 0
-9 -31 -247 0
1 32 40 0
-1 -32 -40 0
2 32 66 0
-2 -32 -66 0
3 32 92 0
-3 -32 -92 0
4 32 118 0
-4 -32 -118 0
5 32 144 0
-5 -32 -144 0
6 32 170 0
-6 -32 -170 0
7 32 196 0
-7 -32 -196 0
8 32 222 0
-8 -32 -222 0
9 32 248 0
-9 -32 -248 0
1 33 41 0
-1 -33 -41 0
2 33 67 0
-2 -33 -67 0
3 33 93 0
-3 -33 -93 0
4 33 119 0
-4 -33 -119 0
5 33 145 0
-5 -33 -145 0
6 33 171 0
-6 -33 -171 0
7 33 197 0
-7 -33 -197 0
8 33 223 0
-8 -33 -223 0
9 33 249 0
-9 -33 -249 0
1 34 42 0
-1 -34 -42 0
2 34 68 0
-2 -34 -68 0
3 34 94 0
-3 -34 -94 0
4 34 120 0
-4 -34 -120 0
5 34 146 0
-5 -34 -146 0
6 34 172 0
-6 -34 -172 0
7 34 198 0
-7 -34 -198 0
8 34 224 0
-8 -34 -224 0
9 34 250 0
-9 -34 -250 0
1 35 43 0
-1 -35 -43 0
2 35 69 0
-2 -35 -69 0
3 35 95 0
-3 -35 -95 0
4 35 121 0
-4 -35 -121 0
5 35 147 0
-5 -35 -147 0
6 35 173 0
-6 -35 -173 0
7 35 199 0
-7 -35 -199 0
8 35 225 0
-8 -35 -225 0
9 35 251 0
-9 -35 -251 0
1 36 44 0
-1 -36 -44 0
2 36 70 0
-2 -36 -70 0
3 36 96 0
-3 -36 -96 0
4 36 122 0
-4 -36 -122 0
5 36 148 0
-5 -36 -148 0
6 36 174 0
-6 -36 -174 0
7 36 200 0
-7 -36 -200 0
8 36 226 0
-8 -36 -226 0
1 37 45 0
-1 -37 -45 0
2 37 71 0
-2 -37 -71 0
3 37 97 0
-3 -37 -97 0
4 37 123 0
-4 -37 -123 0
5 37 149 0
-5 -37 -149 0
6 37 175 0
-6 -37 -175 0
7 37 201 0
-7 -37 -201 0
8 37 227 0
-8 -37 -227 0
1 38 46 0
-1 -38 -46 0
2 38 72 0
-2 -38 -72 0
3 38 98 0
-3 -38 -98 0
4 38 124 0
-4 -38 -124 0
5 38 150 0
-5 -38 -150 0
6 38 176 0
-6 -38 -176 0
7 38 202 0
-7 -38 -202 0
8 38 228 0
-8 -38 -228 0
1 39 47 0
-1 -39 -47 0
2 39 73 0
-2 -39 -73 0
3 39 99 0
-3 -39 -99 0
4 39 125 0
-4 -39 -125 0
5 39 151 0
-5 -39 -151 0
6 39 177 0
-6 -39 -177 0
7 39 203 0
-7 -39 -203 0
8 39 229 0
-8 -39 -229 0
1 40 48 0
-1 -40 -48 0
2 40 74 0
-2 -40 -74 0
3 40 100 0
-3 -40 -100 0
4 40 126 0
-4 -40 -126 0
5 40 152 0
-5 -40 -152 0
6 40 178 0
-6 -40 -178 0
7 40 204 0
-7 -40 -204 0
8 40 230 0
-8 -40 -230 0
1 41 49 0
-1 -41 -49 0
2 41 75 0
-2 -41 -75 0
3 41 101 0
-3 -41 -101 0
4 41 127 0
-4 -41 -127 0
5 41 153 0
-5 -41 -153 0
6 41 179 0
-6 -41 -179 0
7 41 205 0
-7 -41 -205 0
8 41 231 0
-8 -41 -231 0
1 42 50 0
-1 -42 -50 0
2 42 76 0
-2 -42 -76 0
3 42 102 0
-3 -42 -102 0
4 42 128 0
-4 -42 -128 0
5 42 154 0
-5 -42 -154 0
6 42 180 0
-6 -42 -180 0
7 42 206 0
-7 -42 -206 0
8 42 232 0
-8 -42 -232 0
1 43 51 0
-1 -43 -51 0
2 43 77 0
-2 -43 -77 0
3 43 103 0
-3 -43 -103 0
4 43 129 0
-4 -43 -129 0
5 43 155 0
-5 -43 -155 0
6 43 181 0
-6 -43 -181 0
7 43 207 0
-7 -43 -207 0
8 43 233 0
-8 -43 -233 0
1 44 52 0
-1 -44 -52 0
2 44 78 0
-2 -44 -78 0
3 44 104 0
-3 -44 -104 0
4 44 130 0
-4 -44 -130 0
5 44 156 0
-5 -44 -156 0
6 44 182 0
-6 -44 -182 0
7 44 208 0
-7 -44 -208 0
8 44 234 0
-8 -44 -234 0
1 45 53 0
-1 -45 -53 0
2 45 79 0
-2 -45 -79 0
3 45 105 0
-3 -45 -105 0
4 45 131 0
-4 -45 -131 0
5 45 157 0
-5 -45 -157 0
6 45 183 0
-6 -45 -183 0
7 45 209 0
-7 -45 -209 0
8 45 235 0
-8 -45 -235 0
1 46 54 0
-1 -46 -54 0
2 46 80 0
-2 -46 -80 0
3 46 106 0
-3 -46 -106 0
4 46 132 0
-4 -46 -132 0
5 46 158 0
-5 -46 -158 0
6 46 184 0
-6 -46 -184 0
7 46 210 0
-7 -46 -210 0
8 46 236 0
-8 -46 -236 0
1 47 55 0
-1 -47 -55 0
2 47 81 0
-2 -47 -81 0
3 47 107 0
-3 -47 -107 0
4 47 133 0
-4 -47 -133 0
5 47 159 0
-5 -47 -159 0
6 47 185 0
-6 -47 -185 0
7 47 211 0
-7 -47 -211 0
8 47 237 0
-8 -47 -237 0
1 48 56 0
-1 -48 -56 0
2 48 82 0
-2 -48 -82 0
3 48 108 0
-3 -48 -108 0
4 48 134 0
-4 -48 -134 0
5 48 160 0
-5 -48 -160 0
6 48 186 0
-6 -48 -186 0
7 48 212 0
-7 -48 -212 0
8 48 238 0
-8 -48 -238 0
1 49 57 0
-1 -49 -57 0
2 49 83 0
-2 -49 -83 0
3 49 109 0
-3 -49 -109 0
4 49 135 0
-4 -49 -135 0
5 49 161 0
-5 -49 -161 0
6 49 187 0
-6 -49 -187 0
7 49 213 0
-7 -49 -213 0
8 49 239 0
-8 -49 -239 0
1 50 58 0
-1 -50 -58 0
2 50 84 0
-2 -50 -84 0
3 50 110 0
-3 -50 -110 0
4 50 136 0
-4 -50 -136 0
5 50 162 0
-5 -50 -162 0
6 50 188 0
-6 -50 -188 0
7 50 214 0
-7 -50 -214 0
8 50 240 0
-8 -50 -240 0
1 51 59 0
-1 -51 -59 0
2 51 85 0
-2 -51 -85 0
3 51 111 0
-3 -51 -111 0
4 51 137 0
-4 -51 -137 0
5 51 163 0
-5 -51 -163 0
6 51 189 0
-6 -51 -189 0
7 51 215 0
-7 -51 -215 0
8 51 241 0
-8 -51 -241 0
1 52 60 0
-1 -52 -60 0
2 52 86 0
-2 -52 -86 0
3 52 112 0
-3 -52 -112 0
4 52 138 0
-4 -52 -138 0
5 52 164 0
-5 -52 -164 0
6 52 190 0
-6 -52 -190 0
7 52 216 0
-7 -52 -216 0
8 52 242 0
-8 -52 -242 0
1 53 61 0
-1 -53 -61 0
2 53 87 0
-2 -53 -87 0
3 53 113 0
-3 -53 -113 0
4 53 139 0
-4 -53 -139 0
5 53 165 0
-5 -53 -165 0
6 53 191 0
-6 -53 -191 0
7 53 217 0
-7 -53 -217 0
8 53 243 0
-8 -53 -243 0
1 54 62 0
-1 -54 -62 0
2 54 88 0
-2 -54 -88 0
3 54 114 0
-3 -54 -114 0
4 54 140 0
-4 -54 -140 0
5 54 166 0
-5 -54 -166 0
6 54 192 0
-6 -54 -192 0
7 54 218 0
-7 -54 -218 0
8 54 244 0
-8 -54 -244 0
1 55 63 0
-1 -55 -63 0
2 55 89 0
-2 -55 -89 0
3 55 115 0
-3 -55 -115 0
4 55 141 0
-4 -55 -141 0
5 55 167 0
-5 -55 -167 0
6 55 193 0
-6 -55 -193 0
7 55 219 0
-7 -55 -219 0
8 55 245 0
-8 -55 -245 0
1 56 64 0
-1 -56 -64 0
2 56 90 0
-2 -56 -90 0
3 56 116 0
-3 -56 -116 0
4 56 142 0
-4 -56 -142 0
5 56 168 0
-5 -56 -168 0
6 56 194 0
-6 -56 -194 0
7 56 220 0
-7 -56 -220 0
8 56 246 0
-8 -56 -246 0
1 57 65 0
-1 -57 -65 0
2 57 91 0
-2 -57 -91 0
3 57 117 0
-3 -57 -117 0
4 57 143 0
-4 -57 -143 0
5 57 169 0
-5 -57 -169 0
6 57 195 0
-6 -57 -195 0
7 57 221 0
-7 -57 -221 0
8 57 247 0
-8 -57 -247 0
1 58 66 0
-1 -58 -66 0
2 58 92 0
-2 -58 -92 0
3 58 118 0
-3 -58 -118 0
4 58 144 0
-4 -58 -144 0
5 58 170 0
-5 -58 -170 0
6 58 196 0
-6 -58 -196 0
7 58 222 0
-7 -58 -222 0
8 58 248 0
-8 -58 -248 0
1 59 67 0
-1 -59 -67 0
2 59 93 0
-2 -59 -93 0
3 59 119 0
-3 -59 -119 0
4 59 145 0
-4 -59 -145 0
5 59 171 0
-5 -59 -171 0
6 59 197 0
-6 -59 -197 0
7 59 223 0
-7 -59 -223 0
8 59 249 0
-8 -59 -249 0
1 60 68 0
-1 -60 -68 0
2 60 94 0
-2 -60 -94 0
3 60 120 0
-3 -60 -120 0
4 60 146 0
-4 -60 -146 0
5 60 172 0
-5 -60 -172 0
6 60 198 0
-6 -60 -198 0
7 60 224 0
-7 -60 -224 0
8 60 250 0
-8 -60 -250 0
1 61 69 0
-1 -61 -69 0
2 61 95 0
-2 -61 -95 0
3 61 121 0
-3 -61 -121 0
4 61 147 0
-4 -61 -147 0
5 61 173 0
-5 -61 -173 0
6 61 199 0
-6 -61 -199 0
7 61 225 0
-7 -61 -225 0
8 61 251 0
-8 -61 -251 0
1 62 70 0
-1 -62 -70 0
2 62 96 0
-2 -62 -96 0
3 62 122 0
-3 -62 -122 0
4 62 148 0
-4 -62 -148 0
5 62 174 0
-5 -62 -174 0
6 62 200 0
-6 -62 -200 0
7 62 226 0
-7 -62 -226 0
1 63 71 0
-1 -63 -71 0
2 63 97 0
-2 -63 -97 0
3 63 123 0
-3 -63 -123 0
4 63 149 0
-4 -63 -149 0
5 63 175 0
-5 -63 -175 0
6 63 201 0
-6 -63 -201 0
7 63 227 0
-7 -63 -227 0
1 64 72 0
-1 -64 -72 0
2 64 98 0
-2 -64 -98 0
3 64 124 0
-3 -64 -124 0
4 64 150 0
-4 -64 -150 0
5 64 176 0
-5 -64 -176 0
6 64 202 0
-6 -64 -202 0
7 64 228 0
-7 -64 -228 0
1 65 73 0
-1 -65 -73 0
2 65 99 0
-2 -65 -99 0
3 65 125 0
-3 -65 -125 0
4 65 151 0
-4 -65 -151 0
5 65 177 0
-5 -65 -177 0
6 65 203 0
-6 -65 -203 0
7 65 229 0
-7 -65 -229 0
1 66 74 0
-1 -66 -74 0
2 66 100 0
-2 -66 -100 0
3 66 126 0
-3 -66 -126 0
4 66 152 0
-4 -66 -152 0
5 66 178 0
-5 -66 -178 0
6 66 204 0
-6 -66 -204 0
7 66 230 0
-7 -66 -230 0
1 67 75 0
-1 -67 -75 0
2 67 101 0
-2 -67 -101 0
3 67 127 0
-3 -67 -127 0
4 67 153 0
-4 -67 -153 0
5 67 179 0
-5 -67 -179 0
6 67 205 0
-6 -67 -205 0
7 67 231 0
-7 -67 -231 0
1 68 76 0
-1 -68 -76 0
2 68 102 0
-2 -68 -102 0
3 68 128 0
-3 -68 -128 0
4 68 154 0
-4 -68 -154 0
5 68 180 0
-5 -68 -180 0
6 68 206 0
-6 -68 -206 0
7 68 232 0
-7 -68 -232 0
1 69 77 0
-1 -69 -77 0
2 69 103 0
-2 -69 -103 0
3 69 129 0
-3 -69 -129 0
4 69 155 0
-4 -69 -155 0
5 69 181 0
-5 -69 -181 0
6 69 207 0
-6 -69 -207 0
7 69 233 0
-7 -69 -233 0
1 70 78 0
-1 -70 -78 0
2 70 104 0
-2 -70 -104 0
3 70 130 0
-3 -70 -130 0
4 70 156 0
-4 -70 -156 0
5 70 182 0
-5 -70 -182 0
6 70 208 0
-6 -70 -208 0
7 70 234 0
-7 -70 -234 0
1 71 79 0
-1 -71 -79 0
2 71 105 0
-2 -71 -105 0
3 71 131 0
-3 -71 -131 0
4 71 157 0
-4 -71 -157 0
5 71 183 0
-5 -71 -183 0
6 71 209 0
-6 -71 -209 0
7 71 235 0
-7 -71 -235 0
1 72 80 0
-1 -72 -80 0
2 72 106 0
-2 -72 -106 0
3 72 132 0
-3 -72 -132 0
4 72 158 0
-4 -72 -158 0
5 72 184 0
-5 -72 -184 0
6 72 210 0
-6 -72 -210 0
7 72 236 0
-7 -72 -236 0
1 73 81 0
-1 -73 -81 0
2 73 107 0
-2 -73 -107 0
3 73 133 0
-3 -73 -133 0
4 73 159 0
-4 -73 -159 0
5 73 185 0
-5 -73 -185 0
6 73 211 0
-6 -73 -211 0
7 73 237 0
-7 -73 -237 0
1 74 82 0
-1 -74 -82 0
2 74 108 0
-2 -74 -108 0
3 74 134 0
-3 -74 -134 0
4 74 160 0
-4 -74 -160 0
5 74 186 0
-5 -74 -186 0
6 74 212 0
-6 -74 -212 0
7 74 238 0
-7 -74 -238 0
1 75 83 0
-1 -75 -83 0
2 75 109 0
-2 -75 -109 0
3 75 135 0
-3 -75 -135 0
4 75 161 0
-4 -75 -161 0
5 75 187 0
-5 -75 -187 0
6 75 213 0
-6 -75 -213 0
7 75 239 0
-7 -75 -239 0
1 76 84 0
-1 -76 -84 0
2 76 110 0
-2 -76 -110 0
3 76 136 0
-3 -76 -136 0
4 76 162 0
-4 -76 -162 0
5 76 188 0
-5 -76 -188 0
6 76 214 0
-6 -76 -214 0
7 76 240 0
-7 -76 -240 0
1 77 85 0
-1 -77 -85 0
2 77 111 0
-2 -77 -111 0
3 77 137 0
-3 -77 -137 0
4 77 163 0
-4 -77 -163 0
5 77 189 0
-5 -77 -189 0
6 77 215 0
-6 -77 -215 0
7 77 241 0
-7 -77 -241 0
1 78 86 0
-1 -78 -86 0
2 78 112 0
-2 -78 -112 0
3 78 138 0
-3 -78 -138 0
4 78 164 0
-4 -78 -164 0
5 78 190 0
-5 -78 -190 0
6 78 216 0
-6 -78 -216 0
7 78 242 0
-7 -78 -242 0
1 79 87 0
-1 -79 -87 0
2 79 113 0
-2 -79 -113 0
3 79 139 0
-3 -79 -139 0
4 79 165 0
-4 -79 -165 0
5 79 191 0
-5 -79 -191 0
6 79 217 0
-6 -79 -217 0
7 79 243 0
-7 -79 -243 0
1 80 88 0
-1 -80 -88 0
2 80 114 0
-2 -80 -114 0
3 80 140 0
-3 -80 -140 0
4 80 166 0
-4 -80 -166 0
5 80 192 0
-5 -80 -192 0
6 80 218 0
-6 -80 -218 0
7 80 244 0
-7 -80 -244 0
1 81 89 0
-1 -81 -89 0
2 81 115 0
-2 -81 -115 0
3 81 141 0
-3 -81 -141 0
4 81 167 0
-4 -81 -167 0
5 81 193 0
-5 -81 -193 0
6 81 219 0
-6 -81 -219 0
7 81 245 0
-7 -81 -245 0
1 82 90 0
-1 -82 -90 0
2 82 116 0
-2 -82 -116 0
3 82 142 0
-3 -82 -142 0
4 82 168 0
-4 -82 -168 0
5 82 194 0
-5 -82 -194 0
6 82 220 0
-6 -82 -220 0
7 82 246 0
-7 -82 -246 0
1 83 91 0
-1 -83 -91 0
2 83 117 0
-2 -83 -117 0
3 83 143 0
-3 -83 -143 0
4 83 169 0
-4 -83 -169 0
5 83 195 0
-5 -83 -195 0
6 83 221 0
-6 -83 -221 0
7 83 247 0
-7 -83 -247 0
1 84 92 0
-1 -84 -92 0
2 84 118 0
-2 -84 -118 0
3 84 144 0
-3 -84 -144 0
4 84 170 0
-4 -84 -170 0
5 84 196 0
-5 -84 -196 0
6 84 222 0
-6 -84 -222 0
7 84 248 0
-7 -84 -248 0
1 85 93 0
-1 -85 -93 0
2 85 119 0
-2 -85 -119 0
3 85 145 0
-3 -85 -145 0
4 85 171 0
-4 -85 -171 0
5 85 197 0
-5 -85 -197 0
6 85 223 0
-6 -85 -223 0
7 85 249 0
-7 -85 -249 0
1 86 94 0
-1 -86 -94 0
2 86 120 0
-2 -86 -120 0
3 86 146 0
-3 -86 -146 0
4 86 172 0
-4 -86 -172 0
5 86 198 0
-5 -86 -198 0
6 86 224 0
-6 -86 -224 0
7 86 250 0
-7 -86 -250 0
1 87 95 0
-1 -87 -95 0
2 87 121 0
-2 -87 -121 0
3 87 147 0
-3 -87 -147 0
4 87 173 0
-4 -87 -173 0
5 87 199 0
-5 -87 -199 0
6 87 225 0
-6 -87 -225 0
7 87 251 0
-7 -87 -251 0
1 88 96 0
-1 -88 -96 0
2 88 122 0
-2 -88 -122 0
3 88 148 0
-3 -88 -148 0
4 88 174 0
-4 -88 -174 0
5 88 200 0
-5 -88 -200 0
6 88 226 0
-6 -88 -226 0
1 89 97 0
-1 -89 -97 0
2 89 123 0
-2 -89 -123 0
3 89 149 0
-3 -89 -149 0
4 89 175 0
-4 -89 -175 0
5 89 201 0
-5 -89 -201 0
6 89 227 0
-6 -89 -227 0
1 90 98 0
-1 -90 -98 0
2 90 124 0
-2 -90 -124 0
3 90 150 0
-3 -90 -150 0
4 90 176 0
-4 -90 -176 0
5 90 202 0
-5 -90 -202 0
6 90 228 0
-6 -90 -228 0
1 91 99 0
-1 -91 -99 0
2 91 125 0
-2 -91 -125 0
3 91 151 0
-3 -91 -151 0
4 91 177 0
-4 -91 -177 0
5 91 203 0
-5 -91 -203 0
6 91 229 0
-6 -91 -229 0
1 92 100 0
-1 -92 -100 0
2 92 126 0
-2 -92 -126 0
3 92 152 0
-3 -92 -152 0
4 92 178 0
-4 -92 -178 0
5 92 204 0
-5 -92 -204 0
6 92 230 0
-6 -92 -230 0
1 93 101 0
-1 -93 -101 0
2 93 127 0
-2 -93 -127 0
3 93 153 0
-3 -93 -153 0
4 93 179 0
-4 -93 -179 0
5 93 205 0
-5 -93 -205 0
6 93 231 0
-6 -93 -231 0
1 94 102 0
-1 -94 -102 0
2 94 128 0
-2 -94 -128 0
3 94 154 0
-3 -94 -154 0
4 94 180 0
-4 -94 -180 0
5 94 206 0
-5 -94 -206 0
6 94 232 0
-6 -94 -232 0
1 95 103 0
-1 -95 -103 0
2 95 129 0
-2 -95 -129 0
3 95 155 0
-3 -95 -155 0
4 95 181 0
-4 -95 -181 0
5 95 207 0
-5 -95 -207 0
6 95 233 0
-6 -95 -233 0
1 96 104 0
-1 -96 -104 0
2 96 130 0
-2 -96 -130 0
3 96 156 0
-3 -96 -156 0
4 96 182 0
-4 -96 -182 0
5 96 208 0
-5 -96 -208 0
6 96 234 0
-6 -96 -234 0
1 97 105 0
-1 -97 -105 0
2 97 131 0
-2 -97 -131 0
3 97 157 0
-3 -97 -157 0
4 97 183 0
-4 -97 -183 0
5 97 209 0
-5 -97 -209 0
6 97 235 0
-6 -97 -235 0
1 98 106 0
-1 -98 -106 0
2 98 132 0
-2 -98 -132 0
3 98 158 0
-3 -98 -158 0
4 98 184 0
-4 -98 -184 0
5 98 210 0
-5 -98 -210 0
6 98 236 0
-6 -98 -236 0
1 99 107 0
-1 -99 -107 0
2 99 133 0
-2 -99 -133 0
3 99 159 0
-3 -99 -159 0
4 99 185 0
-4 -99 -185 0
5 99 211 0
-5 -99 -211 0
6 99 237 0
-6 -99 -237 0
1 100 108 0
-1 -100 -108 0
2 100 134 0
-2 -100 -134 0
3 100 160 0
-3 -100 -160 0
4 100 186 0
-4 -100 -186 0
5 100 212 0
-5 -100 -212 0
6 100 238 0
-6 -100 -238 0
1 101 109 0
-1 -101 -109 0
2 101 135 0
-2 -101 -135 0
3 101 161 0
-3 -101 -161 0
4 101 187 0
-4 -101 -187 0
5 101 213 0
-5 -101 -213 0
6 101 239 0
-6 -101 -239 0
1 102 110 0
-1 -102 -110 0
2 102 136 0
-2 -102 -136 0
3 102 162 0
-3 -102 -162 0
4 102 188 0
-4 -102 -188 0
5 102 214 0
-5 -102 -214 0
6 102 240 0
-6 -102 -240 0
1 103 111 0
-1 -103 -111 0
2 103 137 0
-2 -103 -137 0
3 103 163 0
-3 -103 -163 0
4 103 189 0
-4 -103 -189 0
5 103 215 0
-5 -103 -215 0
6 103 241 0
-6 -103 -241 0
1 104 112 0
-1 -104 -112 0
2 104 138 0
-2 -104 -138 0
3 104 164 0
-3 -104 -164 0
4 104 190 0
-4 -104 -190 0
5 104 216 0
-5 -104 -216 0
6 104 242 0
-6 -104 -242 0
1 105 113 0
-1 -105 -113 0
2 105 139 0
-2 -105 -139 0
3 105 165 0
-3 -105 -165 0
4 105 191 0
-4 -105 -191 0
5 105 217 0
-5 -105 -217 0
6 105 243 0
-6 -105 -243 0
1 106 114 0
-1 -106 -114 0
2 106 140 0
-2 -106 -140 0
3 106 166 0
-3 -106 -166 0
4 106 192 0
-4 -106 -192 0
5 106 218 0
-5 -106 -218 0
6 106 244 0
-6 -106 -244 0
1 107 115 0
-1 -107 -115 0
2 107 141 0
-2 -107 -141 0
3 107 167 0
-3 -107 -167 0
4 107 193 0
-4 -107 -193 0
5 107 219 0
-5 -107 -219 0
6 107 245 0
-6 -107 -245 0
1 108 116 0
-1 -108 -116 0
2 108 142 0
-2 -108 -142 0
3 108 168 0
-3 -108 -168 0
4 108 194 0
-4 -108 -194 0
5 108 220 0
-5 -108 -220 0
6 108 246 0
-6 -108 -246 0
1 109 117 0
-1 -109 -117 0
2 109 143 0
-2 -109 -143 0
3 109 169 0
-3 -109 -169 0
4 109 195 0
-4 -109 -195 0
5 109 221 0
-5 -109 -221 0
6 109 247 0
-6 -109 -247 0
1 110 118 0
-1 -110 -118 0
2 110 144 0
-2 -110 -144 0
3 110 170 0
-3 -110 -170 0
4 110 196 0
-4 -110 -196 0
5 110 222 0
-5 -110 -222 0
6 110 248 0
-6 -110 -248 0
1 111 119 0
-1 -111 -119 0
2 111 145 0
-2 -111 -145 0
3 111 171 0
-3 -111 -171 0
4 111 197 0
-4 -111 -197 0
5 111 223 0
-5 -111 -223 0
6 111 249 0
-6 -111 -249 0
1 112 120 0
-1 -112 -120 0
2 112 146 0
-2 -112 -146 0
3 112 172 0
-3 -112 -172 0
4 112 198 0
-4 -112 -198 0
5 112 224 0
-5 -112 -224 0
6 112 250 0
-6 -112 -250 0
1 113 121 0
-1 -113 -121 0
2 113 147 0
-2 -113 -147 0
3 113 173 0
-3 -113 -173 0
4 113 199 0
-4 -113 -199 0
5 113 225 0
-5 -113 -225 0
6 113 251 0
-6 -113 -251 0
1 114 122 0
-1 -114 -122 0
2 114 148 0
-2 -114 -148 0
3 114 174 0
-3 -114 -174 0
4 114 200 0
-4 -114 -200 0
5 114 226 0
-5 -114 -226 0
1 115 123 0
-1 -115 -123 0
2 115 149 0
-2 -115 -149 0
3 115 175 0
-3 -115 -175 0
4 115 201 0
-4 -115 -201 0
5 115 227 0
-5 -115 -227 0
1 116 124 0
-1 -116 -124 0
2 116 150 0
-2 -116 -150 0
3 116 176 0
-3 -116 -176 0
4 116 202 0
-4 -116 -202 0
5 116 228 0
-5 -116 -228 0
1 117 125 0
-1 -117 -125 0
2 117 151 0
-2 -117 -151 0
3 117 177 0
-3 -117 -177 0
4 117 203 0
-4 -117 -203 0
5 117 229 0
-5 -117 -229 0
1 118 126 0
-1 -118 -126 0
2 118 152 0
-2 -118 -152 0
3 118 178 0
-3 -118 -178 0
4 118 204 0
-4 -118 -204 0
5 118 230 0
-5 -118 -230 0
1 119 127 0
-1 -119 -127 0
2 119 153 0
-2 -119 -153 0
3 119 179 0
-3 -119 -179 0
4 119 205 0
-4 -119 -205 0
5 119 231 0
-5 -119 -231 0
1 120 128 0
-1 -120 -128 0
2 120 154 0
-2 -120 -154 0
3 120 180 0
-3 -120 -180 0
4 120 206 0
-4 -120 -206 0
5 120 232 0
-5 -120 -232 0
1 121 129 0
-1 -121 -129 0
2 121 155 0
-2 -121 -155 0
3 121 181 0
-3 -121 -181 0
4 121 207 0
-4 -121 -207 0
5 121 233 0
-5 -121 -233 0
1 122 130 0
-1 -122 -130 0
2 122 156 0
-2 -122 -156 0
3 122 182 0
-3 -122 -182 0
4 122 208 0
-4 -122 -208 0
5 122 234 0
-5 -122 -234 0
1 123 131 0
-1 -123 -131 0
2 123 157 0
-2 -123 -157 0
3 123 183 0
-3 -123 -183 0
4 123 209 0
-4 -123 -209 0
5 123 235 0
-5 -123 -235 0
1 124 132 0
-1 -124 -132 0
2 124 158 0
-2 -124 -158 0
3 124 184 0
-3 -124 -184 0
4 124 210 0
-4 -124 -210 0
5 124 236 0
-5 -124 -236 0
1 125 133 0
-1 -125 -133 0
2 125 159 0
-2 -125 -159 0
3 125 185 0
-3 -125 -185 0
4 125 211 0
-4 -125 -211 0
5 125 237 0
-5 -125 -237 0
1 126 134 0
-1 -126 -134 0
2 126 160 0
-2 -126 -160 0
3 126 186 0
-3 -126 -186 0
4 126 212 0
-4 -126 -212 0
5 126 238 0
-5 -126 -238 0
1 127 135 0
-1 -127 -135 0
2 127 161 0
-2 -127 -161 0
3 127 187 0
-3 -127 -187 0
4 127 213 0
-4 -127 -213 0
5 127 239 0
-5 -127 -239 0
1 128 136 0
-1 -128 -136 0
2 128 162 0
-2 -128 -162 0
3 128 188 0
-3 -128 -188 0
4 128 214 0
-4 -128 -214 0
5 128 240 0
-5 -128 -240 0
1 129 137 0
-1 -129 -137 0
2 129 163 0
-2 -129 -163 0
3 129 189 0
-3 -129 -189 0
4 129 215 0
-4 -129 -215 0
5 129 241 0
-5 -129 -241 0
1 130 138 0
-1 -130 -138 0
2 130 164 0
-2 -130 -164 0
3 130 190 0
-3 -130 -190 0
4 130 216 0
-4 -130 -216 0
5 130 242 0
-5 -130 -242 0
1 131 139 0
-1 -131 -139 0
2 131 165 0
-2 -131 -165 0
3 131 191 0
-3 -131 -191 0
4 131 217 0
-4 -131 -217 0
5 131 243 0
-5 -131 -243 0
1 132 140 0
-1 -132 -140 0
2 132 166 0
-2 -132 -166 0
3 132 192 0
-3 -132 -192 0
4 132 218 0
-4 -132 -218 0
5 132 244 0
-5 -132 -244 0
1 133 141 0
-1 -133 -141 0
2 133 167 0
-2 -133 -167 0
3 133 193 0
-3 -133 -193 0
4 133 219 0
-4 -133 -219 0
5 133 245 0
-5 -133 -245 0
1 134 142 0
-1 -134 -142 0
2 134 168 0
-2 -134 -168 0
3 134 194 0
-3 -134 -194 0
4 134 220 0
-4 -134 -220 0
5 134 246 0
-5 -134 -246 0
1 135 143 0
-1 -135 -143 0
2 135 169 0
-2 -135 -169 0
3 135 195 0
-3 -135 -195 0
4 135 221 0
-4 -135 -221 0
5 135 247 0
-5 -135 -247 0
1 136 144 0
-1 -136 -144 0
2 136 170 0
-2 -136 -170 0
3 136 196 0
-3 -136 -196 0
4 136 222 0
-4 -136 -222 0
5 136 248 0
-5 -136 -248 0
1 137 145 0
-1 -137 -145 0
2 137 171 0
-2 -137 -171 0
3 137 197 0
-3 -137 -197 0
4 137 223 0
-4 -137 -223 0
5 137 249 0
-5 -137 -249 0
1 138 146 0
-1 -138 -146 0
2 138 172 0
-2 -138 -172 0
3 138 198 0
-3 -138 -198 0
4 138 224 0
-4 -138 -224 0
5 138 250 0
-5 -138 -250 0
1 139 147 0
-1 -139 -147 0
2 139 173 0
-2 -139 -173 0
3 139 199 0
-3 -139 -199 0
4 139 225 0
-4 -139 -225 0
5 139 251 0
-5 -139 -251 0
1 140 148 0
-1 -140 -148 0
2 140 174 0
-2 -140 -174 0
3 140 200 0
-3 -140 -200 0
4 140 226 0
-4 -140 -226 0
1 141 149 0
-1 -141 -149 0
2 141 175 0
-2 -141 -175 0
3 141 201 0
-3 -141 -201 0
4 141 227 0
-4 -141 -227 0
1 142 150 0
-1 -142 -150 0
2 142 176 0
-2 -142 -176 0
3 142 202 0
-3 -142 -202 0
4 142 228 0
-4 -142 -228 0
1 143 151 0
-1 -143 -151 0
2 143 177 0
-2 -143 -177 0
3 143 203 0
-3 -143 -203 0
4 143 229 0
-4 -143 -229 0
1 144 152 0
-1 -144 -152 0
2 144 178 0
-2 -144 -178 0
3 144 204 0
-3 -144 -204 0
4 144 230 0
-4 -144 -230 0
1 145 153 0
-1 -145 -153 0
2 145 179 0
-2 -145 -179 0
3 145 205 0
-3 -145 -205 0
4 145 231 0
-4 -145 -231 0
1 146 154 0
-1 -146 -154 0
2 146 180 0
-2 -146 -180 0
3 146 206 0
-3 -146 -206 0
4 146 232 0
-4 -146 -232 0
1 147 155 0
-1 -147 -155 0
2 147 181 0
-2 -147 -181 0
3 147 207 0
-3 -147 -207 0
4 147 233 0
-4 -147 -233 0
1 148 156 0
-1 -148 -156 0
2 148 182 0
-2 -148 -182 0
3 148 208 0
-3 -148 -208 0
4 148 234 0
-4 -148 -234 0
1 149 157 0
-1 -149 -157 0
2 149 183 0
-2 -149 -183 0
3 149 209 0
-3 -149 -209 0
4 149 235 0
-4 -149 -235 0
1 150 158 0
-1 -150 -158 0
2 150 184 0
-2 -150 -184 0
3 150 210 0
-3 -150 -210 0
4 150 236 0
-4 -150 -236 0
1 151 159 0
-1 -151 -159 0
2 151 185 0
-2 -151 -185 0
3 151 211 0
-3 -151 -211 0
4 151 237 0
-4 -151 -237 0
1 152 160 0
-1 -152 -160 0
2 152 186 0
-2 -152 -186 0
3 152 212 0
-3 -152 -212 0
4 152 238 0
-4 -152 -238 0
1 153 161 0
-1 -153 -161 0
2 153 187 0
-2 -153 -187 0
3 153 213 0
-3 -153 -213 0
4 153 239 0
-4 -153 -239 0
1 154 162 0
-1 -154 -162 0
2 154 188 0
-2 -154 -188 0
3 154 214 0
-3 -154 -214 0
4 154 240 0
-4 -154 -240 0
1 155 163 0
-1 -155 -163 0
2 155 189 0
-2 -155 -189 0
3 155 215 0
-3 -155 -215 0
4 155 241 0
-4 -155 -241 0
1 156 164 0
-1 -156 -164 0
2 156 190 0
-2 -156 -190 0
3 156 216 0
-3 -156 -216 0
4 156 242 0
-4 -156 -242 0
1 157 165 0
-1 -157 -165 0
2 157 191 0
-2 -157 -191 0
3 157 217 0
-3 -157 -217 0
4 157 243 0
-4 -157 -243 0
1 158 166 0
-1 -158 -166 0
2 158 192 0
-2 -158 -192 0
3 158 218 0
-3 -158 -218 0
4 158 244 0
-4 -158 -244 0
1 159 167 0
-1 -159 -167 0
2 159 193 0
-2 -159 -193 0
3 159 219 0
-3 -159 -219 0
4 159 245 0
-4 -159 -245 0
1 160 168 0
-1 -160 -168 0
2 160 194 0
-2 -160 -194 0
3 160 220 0
-3 -160 -220 0
4 160 246 0
-4 -160 -246 0
1 161 169 0
-1 -161 -169 0
2 161 195 0
-2 -161 -195 0
3 161 221 0
-3 -161 -221 0
4 161 247 0
-4 -161 -247 0
1 162 170 0
-1 -162 -170 0
2 162 196 0
-2 -162 -196 0
3 162 222 0
-3 -162 -222 0
4 162 248 0
-4 -162 -248 0
1 163 171 0
-1 -163 -171 0
2 163 197 0
-2 -163 -197 0
3 163 223 0
-3 -163 -223 0
4 163 249 0
-4 -163 -249 0
1 164 172 0
-1 -164 -172 0
2 164 198 0
-2 -164 -198 0
3 164 224 0
-3 -164 -224 0
4 164 250 0
-4 -164 -250 0
1 165 173 0
-1 -165 -173 0
2 165 199 0
-2 -165 -199 0
3 165 225 0
-3 -165 -225 0
4 165 251 0
-4 -165 -251 0
1 166 174 0
-1 -166 -174 0
2 166 200 0
-2 -166 -200 0
3 166 226 0
-3 -166 -226 0
1 167 175 0
-1 -167 -175 0
2 167 201 0
-2 -167 -201 0
3 167 227 0
-3 -167 -227 0
1 168 176 0
-1 -168 -176 0
2 168 202 0
-2 -168 -202 0
3 168 228 0
-3 -168 -228 0
1 169 177 0
-1 -169 -177 0
2 169 203 0
-2 -169 -203 0
3 169 229 0
-3 -169 -229 0
1 170 178 0
-1 -170 -178 0
2 170 204 0
-2 -170 -204 0
3 170 230 0
-3 -170 -230 0
1 171 179 0
-1 -171 -179 0
2 171 205 0
-2 -171 -205 0
3 171 231 0
-3 -171 -231 0
1 172 180 0
-1 -172 -180 0
2 172 206 0
-2 -172 -206 0
3 172 232 0
-3 -172 -232 0
1 173 181 0
-1 -173 -181 0
2 173 207 0
-2 -173 -207 0
3 173 233 0
-3 -173 -233 0
1 174 182 0
-1 -174 -182 0
2 174 208 0
-2 -174 -208 0
3 174 234 0
-3 -174 -234 0
1 175 183 0
-1 -175 -183 0
2 175 209 0
-2 -175 -209 0
3 175 235 0
-3 -175 -235 0
1 176 184 0
-1 -176 -184 0
2 176 210 0
-2 -176 -210 0
3 176 236 0
-3 -176 -236 0
1 177 185 0
-1 -177 -185 0
2 177 211 0
-2 -177 -211 0
3 177 237 0
-3 -177 -237 0
1 178 186 0
-1 -178 -186 0
2 178 212 0
-2 -178 -212 0
3 178 238 0
-3 -178 -238 0
1 179 187 0
-1 -179 -187 0
2 179 213 0
-2 -179 -213 0
3 179 239 0
-3 -179 -239 0
1 180 188 0
-1 -180 -188 0
2 180 214 0
-2 -180 -214 0
3 180 240 0
-3 -180 -240 0
1 181 189 0
-1 -181 -189 0
2 181 215 0
-2 -181 -215 0
3 181 241 0
-3 -181 -241 0
1 182 190 0
-1 -182 -190 0
2 182 216 0
-2 -182 -216 0
3 182 242 0
-3 -182 -242 0
1 183 191 0
-1 -183 -191 0
2 183 217 0
-2 -183 -217 0
3 183 243 0
-3 -183 -243 0
1 184 192 0
-1 -184 -192 0
2 184 218 0
-2 -184 -218 0
3 184 244 0
-3 -184 -244 0
1 185 193 0
-1 -185 -193 0
2 185 219 0
-2 -185 -219 0
3 185 245 0
-3 -185 -245 0
1 186 194 0
-1 -186 -194 0
2 186 220 0
-2 -186 -220 0
3 186 246 0
-3 -186 -246 0
1 187 195 0
-1 -187 -195 0
2 187 221 0
-2 -187 -221 0
3 187 247 0
-3 -187 -247 0
1 188 196 0
-1 -188 -196 0
2 188 222 0
-2 -188 -222 0
3 188 248 0
-3 -188 -248 0
1 189 197 0
-1 -189 -197 0
2 189 223 0
-2 -189 -223 0
3 189 249 0
-3 -189 -249 0
1 190 198 0
-1 -190 -198 0
2 190 224 0
-2 -190 -224 0
3 190 250 0
-3 -190 -250 0
1 191 199 0
-1 -191 -199 0
2 191 225 0
-2 -191 -225 0
3 191 251 0
-3 -191 -251 0
1 192 200 0
-1 -192 -200 0
2 192 226 0
-2 -192 -226 0
1 193 201 0
-1 -193 -201 0
2 193 227 0
-2 -193 -227 0
1 194 202 0
-1 -194 -202 0
2 194 228 0
-2 -194 -228 0
1 195 203 0
-1 -195 -203 0
2 195 229 0
-2 -195 -229 0
1 196 204 0
-1 -196 -204 0
2 196 230 0
-2 -196 -230 0
1 197 205 0
-1 -197 -205 0
2 197 231 0
-2 -197 -231 0
1 198 206 0
-1 -198 -206 0
2 198 232 0
-2 -198 -232 0
1 199 207 0
-1 -199 -207 0
2 199 233 0
-2 -199 -233 0
1 200 208 0
-1 -200 -208 0
2 200 234 0
-2 -200 -234 0
1 201 209 0
-1 -201 -209 0
2 201 235 0
-2 -201 -235 0
1 202 210 0
-1 -202 -210 0
2 202 236 0
-2 -202 -236 0
1 203 211 0
-1 -203 -211 0
2 203 237 0
-2 -203 -237 0
1 204 212 0
-1 -204 -212 0
2 204 238 0
-2 -204 -238 0
1 205 213 0
-1 -205 -213 0
2 205 239 0
-2 -205 -239 0
1 206 214 0
-1 -206 -214 0
2 206 240 0
-2 -206 -240 0
1 207 215 0
-1 -207 -215 0
2 207 241 0
-2 -207 -241 0
1 208 216 0
-1 -208 -216 0
2 208 242 0
-2 -208 -242 0
1 209 217 0
-1 -209 -217 0
2 209 243 0
-2 -209 -243 0
1 210 218 0
-1 -210 -218 0
2 210 244 0
-2 -210 -244 0
1 211 219 0
-1 -211 -219 0
2 211 245 0
-2 -211 -245 0
1 212 220 0
-1 -212 -220 0
2 212 246 0
-2 -212 -246 0
1 213 221 0
-1 -213 -221 0
2 213 247 0
-2 -213 -247 0
1 214 222 0
-1 -214 -222 0
2 214 248 0
-2 -214 -248 0
1 215 223 0
-1 -215 -223 0
2 215 249 0
-2 -215 -249 0
1 216 224 0
-1 -216 -224 0
2 216 250 0
-2 -216 -250 0
1 217 225 0
-1 -217 -225 0
2 217 251 0
-2 -217 -251 0
1 218 226 0
-1 -218 -226 0
1 219 227 0
-1 -219 -227 0
1 220 228 0
-1 -220 -228 0
1 221 229 0
-1 -221 -229 0
1 222 230 0
-1 -222 -230 0
1 223 231 0
-1 -223 -231 0
1 224 232 0
-1 -224 -232 0
1 225 233 0
-1 -225 -233 0
1 226 234 0
-1 -226 -234 0
1 227 235 0
-1 -227 -235 0
1 228 236 0
-1 -228 -236 0
1 229 237 0
-1 -229 -237 0
1 230 238 0
-1 -230 -238 0
1 231 239 0
-1 -231 -239 0
1 232 240 0
-1 -232 -240 0
1 233 241 0
-1 -233 -241 0
1 234 242 0
-1 -234 -242 0
1 235 243 0
-1 -235 -243 0
1 236 244 0
-1 -236 -244 0
1 237 245 0
-1 -237 -245 0
1 238 246 0
-1 -238 -246 0
1 239 247 0
-1 -239 -247 0
1 240 248 0
-1 -240 -248 0
1 241 249 0
-1 -241 -249 0
1 242 250 0
-1 -242 -250 0
1 243 251 0
-1 -243 -251 0
