certificates/rado_a26_c18_N251.drat
-243 -251 0
d -243 -1 -251 0
27 35 243 0
-9 -251 0
2 -251 0
-251 0
-1 0
9 0
243 0
-225 0
-27 0
233 0
217 0
35 0
19 0
-17 0
-235 0
25 0
227 0
-241 0
-11 0
249 0
3 0
-33 0
-63 0
-219 0
-69 0
-79 0
-85 0
-95 0
-157 0
-167 0
-173 0
-183 0
-189 0
41 0
71 0
55 0
211 0
77 0
61 0
87 0
93 0
103 0
165 0
149 0
175 0
159 0
181 0
191 0
197 0
-101 0
-131 0
-115 0
-151 0
-137 0
-121 0
-147 0
-153 0
-163 0
-43 0
-105 0
-209 0
-89 0
-99 0
109 0
139 0
123 0
107 0
143 0
145 0
129 0
113 0
155 0
161 0
171 0
51 0
97 0
201 0
81 0
91 0
-169 0
-49 0
-199 0
-47 0
-203 0
-2 0
-83 0
-205 0
-53 0
-215 0
-221 0
-7 0
-231 0
-111 0
-37 0
-141 0
-21 0
-31 0
177 0
0
